c Created with the Wolfram Language : www.wolfram.com
c 
p edge 100 988
e 1 2
e 2 3
e 1 5
e 3 5
e 2 6
e 5 7
e 3 9
e 7 9
e 8 9
e 5 10
e 2 12
e 1 13
e 4 13
e 10 13
e 2 14
e 7 14
e 13 14
e 2 15
e 4 15
e 3 16
e 8 16
e 14 16
e 3 17
e 9 17
e 11 17
e 12 17
e 1 18
e 2 18
e 9 18
e 10 18
e 14 18
e 4 19
e 5 19
e 13 20
e 16 20
e 1 21
e 2 21
e 11 21
e 2 22
e 3 22
e 6 22
e 8 22
e 10 22
e 15 22
e 16 22
e 20 22
e 3 23
e 5 23
e 22 23
e 4 24
e 9 24
e 16 24
e 17 24
e 19 24
e 21 24
e 7 25
e 11 25
e 17 25
e 19 25
e 20 25
e 21 25
e 23 25
e 8 26
e 9 26
e 17 26
e 21 26
e 2 27
e 15 27
e 26 27
e 13 28
e 23 28
e 24 28
e 27 28
e 16 29
e 22 29
e 3 30
e 11 30
e 15 30
e 18 30
e 20 30
e 23 30
e 28 30
e 2 31
e 8 31
e 9 31
e 16 31
e 17 31
e 23 31
e 29 31
e 4 32
e 29 32
e 30 32
e 31 32
e 4 33
e 8 33
e 14 33
e 13 34
e 18 34
e 28 34
e 30 34
e 32 34
e 1 35
e 2 35
e 9 35
e 13 35
e 14 35
e 15 35
e 17 35
e 19 35
e 20 35
e 24 35
e 28 35
e 29 35
e 30 35
e 31 35
e 2 36
e 5 36
e 22 36
e 31 36
e 32 36
e 33 36
e 7 37
e 13 37
e 29 37
e 36 37
e 3 38
e 9 38
e 10 38
e 13 38
e 14 38
e 21 38
e 23 38
e 26 38
e 32 38
e 33 38
e 34 38
e 37 38
e 7 39
e 10 39
e 14 39
e 17 39
e 18 39
e 20 39
e 24 39
e 34 39
e 36 39
e 37 39
e 3 40
e 5 40
e 6 40
e 24 40
e 25 40
e 29 40
e 31 40
e 36 40
e 8 41
e 9 41
e 13 41
e 25 41
e 32 41
e 39 41
e 3 42
e 5 42
e 6 42
e 12 42
e 15 42
e 16 42
e 23 42
e 24 42
e 26 42
e 30 42
e 31 42
e 38 42
e 40 42
e 7 43
e 9 43
e 12 43
e 17 43
e 20 43
e 21 43
e 22 43
e 26 43
e 32 43
e 33 43
e 41 43
e 1 44
e 3 44
e 13 44
e 14 44
e 15 44
e 17 44
e 19 44
e 25 44
e 35 44
e 40 44
e 2 45
e 12 45
e 16 45
e 20 45
e 21 45
e 27 45
e 32 45
e 34 45
e 37 45
e 38 45
e 1 46
e 4 46
e 6 46
e 17 46
e 18 46
e 21 46
e 22 46
e 23 46
e 44 46
e 6 47
e 16 47
e 22 47
e 35 47
e 36 47
e 37 47
e 44 47
e 46 47
e 4 48
e 6 48
e 9 48
e 11 48
e 19 48
e 20 48
e 21 48
e 32 48
e 43 48
e 4 49
e 17 49
e 22 49
e 23 49
e 24 49
e 25 49
e 48 49
e 10 50
e 11 50
e 15 50
e 24 50
e 25 50
e 26 50
e 31 50
e 33 50
e 42 50
e 43 50
e 45 50
e 13 51
e 22 51
e 23 51
e 29 51
e 32 51
e 37 51
e 44 51
e 45 51
e 48 51
e 13 52
e 21 52
e 25 52
e 26 52
e 28 52
e 29 52
e 48 52
e 6 53
e 7 53
e 8 53
e 9 53
e 12 53
e 13 53
e 23 53
e 31 53
e 32 53
e 34 53
e 39 53
e 47 53
e 1 54
e 9 54
e 11 54
e 14 54
e 16 54
e 18 54
e 19 54
e 20 54
e 21 54
e 32 54
e 35 54
e 47 54
e 4 55
e 6 55
e 7 55
e 13 55
e 15 55
e 24 55
e 26 55
e 29 55
e 32 55
e 42 55
e 44 55
e 46 55
e 52 55
e 53 55
e 6 56
e 8 56
e 9 56
e 15 56
e 18 56
e 19 56
e 28 56
e 31 56
e 33 56
e 49 56
e 10 57
e 15 57
e 26 57
e 41 57
e 46 57
e 1 58
e 6 58
e 11 58
e 14 58
e 17 58
e 18 58
e 30 58
e 33 58
e 34 58
e 45 58
e 3 59
e 8 59
e 14 59
e 18 59
e 22 59
e 24 59
e 28 59
e 38 59
e 40 59
e 44 59
e 53 59
e 54 59
e 55 59
e 1 60
e 13 60
e 14 60
e 17 60
e 24 60
e 26 60
e 32 60
e 33 60
e 36 60
e 39 60
e 48 60
e 52 60
e 57 60
e 59 60
e 6 61
e 12 61
e 15 61
e 21 61
e 29 61
e 32 61
e 35 61
e 37 61
e 46 61
e 49 61
e 50 61
e 58 61
e 60 61
e 11 62
e 18 62
e 19 62
e 20 62
e 22 62
e 35 62
e 42 62
e 43 62
e 44 62
e 47 62
e 7 63
e 16 63
e 19 63
e 20 63
e 22 63
e 25 63
e 27 63
e 33 63
e 46 63
e 52 63
e 58 63
e 1 64
e 2 64
e 5 64
e 22 64
e 23 64
e 25 64
e 26 64
e 32 64
e 35 64
e 37 64
e 50 64
e 57 64
e 2 65
e 3 65
e 10 65
e 12 65
e 13 65
e 15 65
e 17 65
e 20 65
e 24 65
e 47 65
e 48 65
e 50 65
e 51 65
e 54 65
e 55 65
e 56 65
e 59 65
e 60 65
e 64 65
e 2 66
e 3 66
e 11 66
e 12 66
e 31 66
e 38 66
e 40 66
e 47 66
e 49 66
e 57 66
e 59 66
e 1 67
e 2 67
e 3 67
e 9 67
e 10 67
e 12 67
e 15 67
e 16 67
e 25 67
e 28 67
e 33 67
e 36 67
e 49 67
e 51 67
e 52 67
e 53 67
e 54 67
e 57 67
e 63 67
e 64 67
e 65 67
e 13 68
e 18 68
e 31 68
e 32 68
e 33 68
e 40 68
e 43 68
e 46 68
e 58 68
e 60 68
e 1 69
e 5 69
e 9 69
e 21 69
e 35 69
e 42 69
e 43 69
e 44 69
e 47 69
e 49 69
e 61 69
e 62 69
e 67 69
e 4 70
e 6 70
e 10 70
e 11 70
e 12 70
e 17 70
e 19 70
e 22 70
e 26 70
e 32 70
e 33 70
e 34 70
e 39 70
e 40 70
e 46 70
e 57 70
e 62 70
e 63 70
e 67 70
e 7 71
e 16 71
e 18 71
e 25 71
e 26 71
e 29 71
e 36 71
e 46 71
e 52 71
e 54 71
e 55 71
e 6 72
e 8 72
e 11 72
e 18 72
e 19 72
e 22 72
e 23 72
e 25 72
e 29 72
e 33 72
e 34 72
e 35 72
e 36 72
e 39 72
e 41 72
e 46 72
e 60 72
e 61 72
e 66 72
e 69 72
e 70 72
e 18 73
e 21 73
e 42 73
e 45 73
e 50 73
e 53 73
e 56 73
e 62 73
e 63 73
e 70 73
e 2 74
e 9 74
e 15 74
e 22 74
e 28 74
e 47 74
e 51 74
e 58 74
e 70 74
e 71 74
e 10 75
e 14 75
e 15 75
e 32 75
e 34 75
e 42 75
e 51 75
e 57 75
e 60 75
e 11 76
e 12 76
e 14 76
e 16 76
e 23 76
e 26 76
e 27 76
e 28 76
e 30 76
e 33 76
e 40 76
e 41 76
e 42 76
e 50 76
e 53 76
e 56 76
e 64 76
e 65 76
e 72 76
e 73 76
e 75 76
e 1 77
e 2 77
e 3 77
e 5 77
e 10 77
e 12 77
e 17 77
e 18 77
e 20 77
e 27 77
e 38 77
e 47 77
e 48 77
e 54 77
e 59 77
e 60 77
e 75 77
e 1 78
e 8 78
e 10 78
e 11 78
e 14 78
e 17 78
e 27 78
e 30 78
e 33 78
e 40 78
e 43 78
e 48 78
e 50 78
e 61 78
e 68 78
e 71 78
e 6 79
e 7 79
e 13 79
e 25 79
e 30 79
e 31 79
e 32 79
e 46 79
e 48 79
e 49 79
e 51 79
e 52 79
e 57 79
e 63 79
e 77 79
e 3 80
e 5 80
e 7 80
e 12 80
e 31 80
e 32 80
e 34 80
e 39 80
e 43 80
e 70 80
e 73 80
e 10 81
e 11 81
e 13 81
e 14 81
e 15 81
e 19 81
e 44 81
e 56 81
e 62 81
e 74 81
e 77 81
e 78 81
e 3 82
e 8 82
e 16 82
e 28 82
e 32 82
e 46 82
e 47 82
e 52 82
e 53 82
e 61 82
e 69 82
e 78 82
e 4 83
e 5 83
e 9 83
e 13 83
e 14 83
e 15 83
e 24 83
e 25 83
e 31 83
e 37 83
e 39 83
e 40 83
e 54 83
e 65 83
e 66 83
e 68 83
e 73 83
e 2 84
e 19 84
e 28 84
e 32 84
e 40 84
e 51 84
e 56 84
e 60 84
e 62 84
e 66 84
e 67 84
e 80 84
e 2 85
e 3 85
e 4 85
e 6 85
e 8 85
e 11 85
e 13 85
e 21 85
e 26 85
e 28 85
e 30 85
e 33 85
e 38 85
e 42 85
e 53 85
e 59 85
e 65 85
e 69 85
e 81 85
e 82 85
e 83 85
e 5 86
e 11 86
e 12 86
e 18 86
e 19 86
e 20 86
e 40 86
e 44 86
e 52 86
e 55 86
e 56 86
e 65 86
e 69 86
e 79 86
e 80 86
e 85 86
e 6 87
e 10 87
e 15 87
e 23 87
e 30 87
e 31 87
e 40 87
e 48 87
e 50 87
e 52 87
e 53 87
e 62 87
e 64 87
e 66 87
e 70 87
e 76 87
e 77 87
e 3 88
e 5 88
e 7 88
e 11 88
e 18 88
e 21 88
e 24 88
e 25 88
e 26 88
e 29 88
e 32 88
e 39 88
e 43 88
e 49 88
e 55 88
e 64 88
e 68 88
e 77 88
e 81 88
e 82 88
e 2 89
e 3 89
e 5 89
e 10 89
e 19 89
e 23 89
e 27 89
e 34 89
e 35 89
e 36 89
e 45 89
e 47 89
e 48 89
e 50 89
e 51 89
e 55 89
e 75 89
e 77 89
e 12 90
e 13 90
e 17 90
e 26 90
e 33 90
e 56 90
e 62 90
e 63 90
e 81 90
e 85 90
e 7 91
e 8 91
e 11 91
e 12 91
e 18 91
e 31 91
e 35 91
e 39 91
e 43 91
e 45 91
e 48 91
e 50 91
e 53 91
e 55 91
e 57 91
e 59 91
e 82 91
e 1 92
e 11 92
e 12 92
e 13 92
e 15 92
e 20 92
e 21 92
e 23 92
e 27 92
e 32 92
e 42 92
e 52 92
e 54 92
e 55 92
e 58 92
e 61 92
e 68 92
e 6 93
e 9 93
e 10 93
e 14 93
e 17 93
e 18 93
e 34 93
e 36 93
e 41 93
e 50 93
e 52 93
e 67 93
e 76 93
e 78 93
e 83 93
e 86 93
e 91 93
e 1 94
e 2 94
e 16 94
e 17 94
e 19 94
e 20 94
e 21 94
e 26 94
e 29 94
e 31 94
e 41 94
e 45 94
e 56 94
e 63 94
e 66 94
e 67 94
e 68 94
e 72 94
e 79 94
e 80 94
e 81 94
e 84 94
e 87 94
e 88 94
e 1 95
e 12 95
e 13 95
e 16 95
e 17 95
e 18 95
e 23 95
e 24 95
e 32 95
e 41 95
e 42 95
e 59 95
e 67 95
e 73 95
e 78 95
e 79 95
e 80 95
e 88 95
e 91 95
e 93 95
e 10 96
e 15 96
e 22 96
e 31 96
e 33 96
e 34 96
e 40 96
e 50 96
e 65 96
e 68 96
e 74 96
e 75 96
e 77 96
e 79 96
e 80 96
e 81 96
e 90 96
e 93 96
e 7 97
e 18 97
e 21 97
e 24 97
e 26 97
e 35 97
e 36 97
e 39 97
e 58 97
e 60 97
e 63 97
e 66 97
e 67 97
e 78 97
e 89 97
e 95 97
e 96 97
e 2 98
e 5 98
e 6 98
e 10 98
e 13 98
e 14 98
e 16 98
e 21 98
e 23 98
e 27 98
e 30 98
e 33 98
e 50 98
e 52 98
e 54 98
e 66 98
e 67 98
e 71 98
e 72 98
e 74 98
e 77 98
e 83 98
e 85 98
e 90 98
e 7 99
e 9 99
e 12 99
e 18 99
e 21 99
e 23 99
e 24 99
e 27 99
e 29 99
e 31 99
e 38 99
e 46 99
e 54 99
e 59 99
e 60 99
e 61 99
e 62 99
e 69 99
e 74 99
e 92 99
e 5 100
e 14 100
e 21 100
e 24 100
e 31 100
e 32 100
e 38 100
e 43 100
e 47 100
e 48 100
e 50 100
e 54 100
e 55 100
e 57 100
e 58 100
e 62 100
e 68 100
e 77 100
e 83 100
e 85 100
e 87 100
e 88 100
e 90 100
e 94 100
